17327 16728 16437 15546 15243 15109 14723 14361 14027 13797 13249 13085 12747 12376 12220 11870 11649 11417 11195 10806 10716 10555 10254 10111 9821 9744 9580 9475 9265 9107 8995 8859 8718 8657 8552 8470 8407 8307 8229 8135 8055 7965 7888 7846 7755 7698 7598 7494 7390 7319 7295 7242 7182 7129 7085 7006 6968 6926 6848 6810 6785 6774 6742 6709 6682 6646 6598 6585 6527 6501 6474 6413 6371 6321 6320 6263 6225 6186 6143 6107 6090 6068 6034 5993 5980 5975 5964 5917 5874 5836 5815 5819 5785 5770 5751 5734 5717 5699 5675 5665 5664 5641 5645 5626 5605 5605 5583 5547 5531 5506 5480 5472 5452 5447 5438 5423 5414 5394 5390 5384 5377 5365 5341 5334 5312 5310 5289 5275 5275 5264 5250 5239 5225 5202 5200 5197 5109 5166 5164 5145 5128 5115 5096 5094 5083 5063 5053 5051 5051 5031 5032 5019 5017 4991 5036 5016 4986 4977 4948 4961 4944 4956 4946 4921 4930 4936 4934 4909 4932 4910 4901 4898 4880 4853 4845 4824 4817 4805 4789 4779 4783 4769 4778 4776 4766 4776 4759 4758 4738 4736 4758 4714 4732 4706 4705 4701 4691 4686 4661 4630 4639 4660 4665 4633 4639 4618 4592 4566 4545 4546 4539 4533 4531 4518 4479 4499 4480 4481 4467 4446 4479 4470 4443 4429 4438 4305 4385 4308 4351 4375 4375 4342 4328 4325 4235 4212 4220 4276 4254 4310 4297 4319 4319 4313 4249 4294 4309 4272 4264 4247 4243 4223 4238 4234 4226 4151 4146 4151 4110 4159 4080 4125 4125 4090 4079 4016 4171 4074 4010 4113 4049 4100 4052 4087 4087 4078 4105 4098 4075 4093 4079 4059 4039 4018 4003 3992 3980 4013 4012 4000 3983 3972 3965 3963 3936 3982 3942 3924 3965 3938 3916 3932 3934 3919 3896 3927 3907 3900 3913 3881 3867 3898 3869 3836 3823 3809 3797 3778 3809 3794 3775 3772 3751 3774 3774 3769 3749 3768 3748 3721 3721 3721 3699 3708 3708 3697 3692 3681 3676 3665 3650 3639 3625 3612 3606 3592 3586 3576 3527 3522 3590 3525 3517 3502 3464 3438 3420 3385 3379 3359 3359 3359 3351 3330 3322 3312 3304 3302 3300 3298 3295 3294 3294 3280 3278 3278 3271 3266 3257 3257 3257 3241 3240 3226 3223 3210 3207 3194 3191 3191 3181 3181 3167 3167 3157 3150 3150 3150 3149 3146 3144 3144 3142 3140 3134 3129 3128 3128 3122 3122 3116 3116 3114 3114 3103 3098 3097 3093 3091 3091 3091 3091 3091 3089 3089 3089 3088 3087 3086 3083 3083 3083 3081 3081 3079 3079 3079 3079 3074 3074 3074 3074 3074 3069 3069 3054 3051 3051 3045 3045 3037 3037 3037 3037 3037 3037 3031 3031 3031 3011 2991 2991 2983 2983 2983 2983 2983 2983 2983 2983 2983 2983 2975 2975 2975 2975 2975 2975 2975 2975 2975 2975 2975 2975 2969 2961 2961 2955 2955 2955 2955 2955 2955 2955 2949 2949 2949 2941 2941 2941 2941 2941 2941 2941 2941 2940 2939 2939 2938 2938 2938 2938 2938 2938 2938 2938 2938 2938 2936 2936 2936 2936 2934 2934 2934 2934 2934 2934 2934 2934 2934 2932 2932 2932 2932 2932 2932 2932 2932 2932 2932 2932 2932 2932 2932 2932 2932 2932 2932 2932 2932 2932 2932 2932 2932 2932 2932 2932 2932 2932 2932 2932 2932 2932 2932 2932 2932 2932 2932 2932 2932 2932 2932 2932 2932 2932 2932 2932 2932 2932 2932 2932 2932 2932 2932 2932 2932 2932 2932 2932 2932 2932 2932 2932 2932 2932 2932 2932 2932 2932 2932 2932 2932 2930 2930 2930 2930 2930 2930 2930 2930 2930 2930 2930 2930 2914 2914 2914 2914 2914 2914 2914 2914 2914 2914 2914 2913 2913 2913 2913 2913 2913 2913 2913 2913 2913 2913 2913 2913 2913 2913 2913 2913 2913 2913 2913 2913 2913 2913 2913 2913 2913 2913 2913 2913 2913 2913 2913 2913 2913 2913 2913 2913 2913 2898 2898 2898 2898 2898 2898 2898 2898 2898 2898 2898 2898 2898 2898 2898 2898 2885 2885 2885 2885 2885 2885 2885 2885 2885 2885 2885 2885 2885 2885 2885 2885 2885 2885 2885 2885 2885 2885 2885 2885 2885 2885 2885 2885 2885 2885 2885 2885 2885 2885 2885 2885 2885 2885 2885 2885 2885 2885 2885 2885 2885 2885 2885 2885 2885 2885 2885 2885 2885 2885 2885 2885 2885 2885 2885 2885 2885 2885 2885 2885 2885 2885 2885 2885 2885 2885 2885 2885 2885 2885 2885 2885 2885 2885 2885 2885 2885 2885 2885 2885 2885 2885 2885 2885 2885 2885 2885 2885 2885 2885 2885 2884 2884 2884 2884 2884 2875 2875 2867 2864 2864 2864 2864 2864 2864 2864 2864 2864 2852 2852 2852 2852 2852 2852 2852 2852 2852 2852 2852 2852 2852 2852 2852 2852 2852 2852 2852 2852 2852 2852 2852 2852 2839 2839 2832 2819 2819 2819 2819 2819 2819 2819 2819 2819 2819 2819 2819 2819 2819 2819 2819 2819 2819 2819 2819 2819 2819 2819 2819 2819 2819 2819 2819 2819 2819 2819 2819 2819 2819 2819 2819 2819 2819 2819 2819 2819 2819 2819 2819 2819 2819 2819 2819 2819 2819 2819 2819 2819 2819 2819 2819 2819 2819 2819 2819 2819 2819 2819 2819 2819 2819 2819 2819 2819 2819 2819 2819 2819 2819 2819 2819 2819 2819 2819 2819 2819 2819 2819 2819 2819 2819 2819 2819 2819 2819 2819 2819 2819 2819 2819 2819 2819 2819 2819 2819 2819 2819 2819 2819 2819 2819 2819 2819 2819 2819 2819 2819 2819 2819 2819 2819 2819 2819 2819 2819 2819 2819 2819 2819 2819 2819 2819 2819 2819 2819 2819 2819 2819 2819 2819 2819 2819 2819 2819 2819 2819 2819 2819 2819 2819 2819 2819 2819 2819 2819 2819 2819 2819 2819 2819 2819 2819 2819 2819 2819 2819 2819 2819 2819 2819 2819 2819 2819 2819 2819 2819 2819 2819 2819 2819 2819 2819 2819 2819 2819 2819 2819 2819 2819 2819 2819 2819 2819 2819 2819 2819 2819 2819 2819 2819 2819 2819 2819 2819 2819 2819 2819 2819 2819 2819 2819 2819 2819 2819 2819 2819 2819 2819 2819 2819 2819 2819 2819 2819 2819 2819 2819 2819 2819 2819 2819 2819 2819 2819 2819 2819 2819 2819 2819 2819 2819 2819 2819 2819 2819 2819 2819 2819 2819 2819 2819 2819 2819 2819 2819 2819 2819 2819 2819 2819 2819 2819 2819 2819 2819 2819 2819 2819 2819 2819 2819 2819 2819 2819 2819 2819 2819 2819 2819 2819 2819 2819 2819 2819 2819 2819 2819 2819 2819 2819 2819 2819 2819 2819 2819 2819 2819 2819 2819 2819 2819 2819 2819 2819 2819 2819 2819 2819 2819 2819 2819 2819 2819 2819 2819 2819 2819 2819 2819 2819 2819 2819 2819 2819 2819 2819 2819 2819 2819 2819 2819 2819 2819 2819 2819 2819 2819 2819 2819 2819 2819 2819 2819 2819 2819 2819 2819 2819 2819 2819 2819 2819 2819 2819 2819 2819 2819 2819 2819 2819 2819 2819 2819 2819 2819 2819 2819 2819 2819 2819 2819 2819 2819 2819 2819 2819 2819 2819 2819 2819 2819 2819 2819 2819 2819 2819 2819 2819 2819 2819 2819 2819 2819 2819 2819 2819 2819 2819 2819 2819 2819 2819 2819 2819 2819 2819 2819 2819 2819 2819 2819 2819 2819 2819 2819 2819 2819 2819 2819 2819 2819 2819 2819 2819 2819 2819 2819 2819 2819 2819 2819 2819 2819 2819 2819 2819 2819 2819 2819 2819 2819 2819 2819 2819 2819 2819 2819 2819 2819 2819 2819 2819 2819 2819 2819 2819 2819 2819 2819 2819 2819 2819 2819 2819 2819 2819 2819 2819 2819 2819 2819 2819 2819 2819 2819 2819 2819 2819 2819 2819 2819 2819 2819 2819 2819 2819 2819 2819 2819 2819 2819 2819 2819 2819 2819 2819 2819 2819 2819 2819 2819 2819 2819 2819 2819 2819 
13330 12728 12449 11792 11561 11133 10825 10384 10039 9815 9261 9097 8758 8380 8230 7880 7659 7431 7202 6814 6719 6558 6257 6114 5826 5747 5583 5480 5271 5114 5000 4868 4723 4657 4552 4475 4409 4320 4242 4141 4057 3965 3888 3848 3759 3698 3615 3494 3390 3319 3295 3242 3182 3129 3085 3006 2968 2926 2848 2810 2785 2774 2745 2712 2684 2646 2598 2585 2527 2501 2474 2423 2376 2333 2322 2267 2229 2196 2153 2111 2100 2078 2062 2021 1990 1985 1974 1942 1891 1856 1845 1831 1815 1787 1784 1756 1743 1719 1700 1690 1677 1666 1649 1640 1630 1621 1604 1579 1562 1534 1514 1500 1480 1479 1464 1460 1448 1428 1422 1410 1403 1391 1377 1370 1357 1346 1334 1319 1310 1299 1285 1274 1258 1249 1233 1228 1220 1213 1200 1191 1175 1159 1140 1138 1127 1116 1106 1100 1089 1085 1079 1076 1074 1072 1058 1049 1043 1020 1013 1002 1000 984 982 977 969 957 953 948 943 929 922 919 909 898 886 871 852 850 828 828 822 818 815 813 811 807 806 805 799 797 795 791 789 763 762 758 748 743 721 721 705 697 695 684 676 657 656 625 606 600 600 597 596 594 579 576 576 567 560 557 556 555 542 541 526 521 519 515 509 504 504 496 496 473 470 457 455 445 441 439 428 419 419 415 412 393 389 389 389 364 364 364 359 359 353 313 313 305 305 304 302 295 295 294 292 292 281 281 281 276 272 268 266 262 262 262 260 256 254 252 252 252 252 252 252 252 252 238 238 238 238 238 223 223 223 219 219 219 193 193 193 188 183 178 178 168 166 166 112 112 112 107 107 107 107 107 107 107 105 90 90 90 76 74 74 74 74 67 67 61 61 61 61 46 46 46 46 46 46 46 46 46 46 46 46 46 46 46 46 46 33 33 33 31 0 0 0 0 0 0 0 0 0 0 0 0 0 0 0 0 0 0 0 0 0 0 0 0 0 0 0 0 0 0 0 0 0 0 0 0 0 0 0 0 0 0 0 0 0 0 0 0 0 0 0 0 0 0 0 0 0 0 0 0 0 0 0 0 0 0 0 0 0 0 0 0 0 0 0 0 0 0 0 0 0 0 0 0 0 0 0 0 0 0 0 0 0 0 0 0 0 0 0 0 0 0 0 0 0 0 0 0 0 0 0 0 0 0 0 0 0 0 0 0 0 0 0 0 0 0 0 0 0 0 0 0 0 0 0 0 0 0 0 0 0 0 0 0 0 0 0 0 0 0 0 0 0 0 0 0 0 0 0 0 0 0 0 0 0 0 0 0 0 0 0 0 0 0 0 0 0 0 0 0 0 0 0 0 0 0 0 0 0 0 0 0 0 0 0 0 0 0 0 0 0 0 0 0 0 0 0 0 0 0 0 0 0 0 0 0 0 0 0 0 0 0 0 0 0 0 0 0 0 0 0 0 0 0 0 0 0 0 0 0 0 0 0 0 0 0 0 0 0 0 0 0 0 0 0 0 0 0 0 0 0 0 0 0 0 0 0 0 0 0 0 0 0 0 0 0 0 0 0 0 0 0 0 0 0 0 0 0 0 0 0 0 0 0 0 0 0 0 0 0 0 0 0 0 0 0 0 0 0 0 0 0 0 0 0 0 0 0 0 0 0 0 0 0 0 0 0 0 0 0 0 0 0 0 0 0 0 0 0 0 0 0 0 0 0 0 0 0 0 0 0 0 0 0 0 0 0 0 0 0 0 0 0 0 0 0 0 0 0 0 0 0 0 0 0 0 0 0 0 0 0 0 0 0 0 0 0 0 0 0 0 0 0 0 0 0 0 0 0 0 0 0 0 0 0 0 0 0 0 0 0 0 0 0 0 0 0 0 0 0 0 0 0 0 0 0 0 0 0 0 0 0 0 0 0 0 0 0 0 0 0 0 0 0 0 0 0 0 0 0 0 0 0 0 0 0 0 0 0 0 0 0 0 0 0 0 0 0 0 0 0 0 0 0 0 0 0 0 0 0 0 0 0 0 0 0 0 0 0 0 0 0 0 0 0 0 0 0 0 0 0 0 0 0 0 0 0 0 0 0 0 0 0 0 0 0 0 0 0 0 0 0 0 0 0 0 0 0 0 0 0 0 0 0 0 0 0 0 0 0 0 0 0 0 0 0 0 0 0 0 0 0 0 0 0 0 0 0 0 0 0 0 0 0 0 0 0 0 0 0 0 0 0 0 0 0 0 0 0 0 0 0 0 0 0 0 0 0 0 0 0 0 0 0 0 0 0 0 0 0 0 0 0 0 0 0 0 0 0 0 0 0 0 0 0 0 0 0 0 0 0 0 0 0 0 0 0 0 0 0 0 0 0 0 0 0 0 0 0 0 0 0 0 0 0 0 0 0 0 0 0 0 0 0 0 0 0 0 0 0 0 0 0 0 0 0 0 0 0 0 0 0 0 0 0 0 0 0 0 0 0 0 0 0 0 0 0 0 0 0 0 0 0 0 0 0 0 0 0 0 0 0 0 0 0 0 0 0 0 0 0 0 0 0 0 0 0 0 0 0 0 0 0 0 0 0 0 0 0 0 0 0 0 0 0 0 0 0 0 0 0 0 0 0 0 0 0 0 0 0 0 0 0 0 0 0 0 0 0 0 0 0 0 0 0 0 0 0 0 0 0 0 0 0 0 0 0 0 0 0 0 0 0 0 0 0 0 0 0 0 0 0 0 0 0 0 0 0 0 0 0 0 0 0 0 0 0 0 0 0 0 0 0 0 0 0 0 0 0 0 0 0 0 0 0 0 0 0 0 0 0 0 0 0 0 0 0 0 0 0 0 0 0 0 0 0 0 0 0 0 0 0 0 0 0 0 0 0 0 0 0 0 0 0 0 0 0 0 0 0 0 0 0 0 0 0 0 0 0 0 0 0 0 0 0 0 0 0 0 0 0 0 0 0 0 0 0 0 0 0 0 0 0 0 0 0 0 0 0 0 0 0 0 0 0 0 0 0 0 0 0 0 0 0 0 0 0 0 0 0 0 0 0 0 0 0 0 0 0 0 0 0 0 0 0 0 0 0 0 0 0 0 0 0 0 0 0 0 0 0 0 0 0 0 0 0 